Ca1 F2                                  
   1.00000000000000     
    10.8528347015000008    0.0000000000000000    0.0000000000000000
     0.0000000000000000   10.8528347015000008    0.0000000000000000
     0.0000000000000000    0.0000000000000000   10.8528347015000008
   Ca   F    Bi
    31    64     1
Direct
 -0.0000000000000000  0.0000000000000000 -0.0000000000000000
 -0.0000000000000000  0.0000000000000000  0.5000000000000000
 -0.0000000000000000  0.5000000000000000 -0.0000000000000000
 -0.0000000000000000  0.5000000000000000  0.5000000000000000
  0.5000000000000000  0.0000000000000000 -0.0000000000000000
  0.5000000000000000  0.0000000000000000  0.5000000000000000
  0.5000000000000000  0.5000000000000000 -0.0000000000000000
 -0.0000000000000000  0.2493050718277011  0.2493050718277011
 -0.0000000000000000  0.2493050718277011  0.7506949281722989
 -0.0000000000000000  0.7506949281722989  0.2493050718277011
 -0.0000000000000000  0.7506949281722989  0.7506949281722989
  0.5000000000000000  0.2459253044537982  0.2459253044537982
  0.5000000000000000  0.2459253044537982  0.7540746955462018
  0.5000000000000000  0.7540746955462018  0.2459253044537982
  0.5000000000000000  0.7540746955462018  0.7540746955462018
  0.2493050718277011  0.0000000000000000  0.2493050718277011
  0.2493050718277011  0.0000000000000000  0.7506949281722989
  0.2459253044537982  0.5000000000000000  0.2459253044537982
  0.2459253044537982  0.5000000000000000  0.7540746955462018
  0.7506949281722989  0.0000000000000000  0.2493050718277011
  0.7506949281722989  0.0000000000000000  0.7506949281722989
  0.7540746955462018  0.5000000000000000  0.2459253044537982
  0.7540746955462018  0.5000000000000000  0.7540746955462018
  0.2493050718277011  0.2493050718277011 -0.0000000000000000
  0.2459253044537982  0.2459253044537982  0.5000000000000000
  0.2493050718277011  0.7506949281722989 -0.0000000000000000
  0.2459253044537982  0.7540746955462018  0.5000000000000000
  0.7506949281722989  0.2493050718277011 -0.0000000000000000
  0.7540746955462018  0.2459253044537982  0.5000000000000000
  0.7506949281722989  0.7506949281722989 -0.0000000000000000
  0.7540746955462018  0.7540746955462018  0.5000000000000000
  0.1251043853914515  0.1251043853914515  0.1251043853914515
  0.1244681262756924  0.1244681262756924  0.6251187943769163
  0.1244681262756924  0.6251187943769163  0.1244681262756924
  0.1257863162561383  0.6252604472799231  0.6252604472799231
  0.6251187943769163  0.1244681262756924  0.1244681262756924
  0.6252604472799231  0.1257863162561383  0.6252604472799231
  0.6252604472799231  0.6252604472799231  0.1257863162561383
  0.6247986971089853  0.6247986971089853  0.6247986971089853
  0.3752013028910147  0.3752013028910147  0.3752013028910147
  0.3747395527200768  0.3747395527200768  0.8742136837438617
  0.3747395527200768  0.8742136837438617  0.3747395527200768
  0.3748812056230835  0.8755318737243075  0.8755318737243075
  0.8742136837438617  0.3747395527200768  0.3747395527200768
  0.8755318737243075  0.3748812056230835  0.8755318737243075
  0.8755318737243075  0.8755318737243075  0.3748812056230835
  0.8748956146085486  0.8748956146085486  0.8748956146085486
  0.3747395527200768  0.3747395527200768  0.1257863162561383
  0.3752013028910147  0.3752013028910147  0.6247986971089853
  0.3748812056230835  0.8755318737243075  0.1244681262756924
  0.3747395527200768  0.8742136837438617  0.6252604472799231
  0.8755318737243075  0.3748812056230835  0.1244681262756924
  0.8742136837438617  0.3747395527200768  0.6252604472799231
  0.8748956146085486  0.8748956146085486  0.1251043853914515
  0.8755318737243075  0.8755318737243075  0.6251187943769163
  0.1244681262756924  0.1244681262756924  0.3748812056230835
  0.1251043853914515  0.1251043853914515  0.8748956146085486
  0.1257863162561383  0.6252604472799231  0.3747395527200768
  0.1244681262756924  0.6251187943769163  0.8755318737243075
  0.6252604472799231  0.1257863162561383  0.3747395527200768
  0.6251187943769163  0.1244681262756924  0.8755318737243075
  0.6247986971089853  0.6247986971089853  0.3752013028910147
  0.6252604472799231  0.6252604472799231  0.8742136837438617
  0.3747395527200768  0.1257863162561383  0.3747395527200768
  0.3748812056230835  0.1244681262756924  0.8755318737243075
  0.3752013028910147  0.6247986971089853  0.3752013028910147
  0.3747395527200768  0.6252604472799231  0.8742136837438617
  0.8755318737243075  0.1244681262756924  0.3748812056230835
  0.8748956146085486  0.1251043853914515  0.8748956146085486
  0.8742136837438617  0.6252604472799231  0.3747395527200768
  0.8755318737243075  0.6251187943769163  0.8755318737243075
  0.1244681262756924  0.3748812056230835  0.1244681262756924
  0.1257863162561383  0.3747395527200768  0.6252604472799231
  0.1251043853914515  0.8748956146085486  0.1251043853914515
  0.1244681262756924  0.8755318737243075  0.6251187943769163
  0.6252604472799231  0.3747395527200768  0.1257863162561383
  0.6247986971089853  0.3752013028910147  0.6247986971089853
  0.6251187943769163  0.8755318737243075  0.1244681262756924
  0.6252604472799231  0.8742136837438617  0.6252604472799231
  0.1257863162561383  0.3747395527200768  0.3747395527200768
  0.1244681262756924  0.3748812056230835  0.8755318737243075
  0.1244681262756924  0.8755318737243075  0.3748812056230835
  0.1251043853914515  0.8748956146085486  0.8748956146085486
  0.6247986971089853  0.3752013028910147  0.3752013028910147
  0.6252604472799231  0.3747395527200768  0.8742136837438617
  0.6252604472799231  0.8742136837438617  0.3747395527200768
  0.6251187943769163  0.8755318737243075  0.8755318737243075
  0.3748812056230835  0.1244681262756924  0.1244681262756924
  0.3747395527200768  0.1257863162561383  0.6252604472799231
  0.3747395527200768  0.6252604472799231  0.1257863162561383
  0.3752013028910147  0.6247986971089853  0.6247986971089853
  0.8748956146085486  0.1251043853914515  0.1251043853914515
  0.8755318737243075  0.1244681262756924  0.6251187943769163
  0.8755318737243075  0.6251187943769163  0.1244681262756924
  0.8742136837438617  0.6252604472799231  0.6252604472799231
  0.5000000000000000  0.5000000000000000  0.5000000000000000
 
  0.00000000E+00  0.00000000E+00  0.00000000E+00
  0.00000000E+00  0.00000000E+00  0.00000000E+00
  0.00000000E+00  0.00000000E+00  0.00000000E+00
  0.00000000E+00  0.00000000E+00  0.00000000E+00
  0.00000000E+00  0.00000000E+00  0.00000000E+00
  0.00000000E+00  0.00000000E+00  0.00000000E+00
  0.00000000E+00  0.00000000E+00  0.00000000E+00
  0.00000000E+00  0.00000000E+00  0.00000000E+00
  0.00000000E+00  0.00000000E+00  0.00000000E+00
  0.00000000E+00  0.00000000E+00  0.00000000E+00
  0.00000000E+00  0.00000000E+00  0.00000000E+00
  0.00000000E+00  0.00000000E+00  0.00000000E+00
  0.00000000E+00  0.00000000E+00  0.00000000E+00
  0.00000000E+00  0.00000000E+00  0.00000000E+00
  0.00000000E+00  0.00000000E+00  0.00000000E+00
  0.00000000E+00  0.00000000E+00  0.00000000E+00
  0.00000000E+00  0.00000000E+00  0.00000000E+00
  0.00000000E+00  0.00000000E+00  0.00000000E+00
  0.00000000E+00  0.00000000E+00  0.00000000E+00
  0.00000000E+00  0.00000000E+00  0.00000000E+00
  0.00000000E+00  0.00000000E+00  0.00000000E+00
  0.00000000E+00  0.00000000E+00  0.00000000E+00
  0.00000000E+00  0.00000000E+00  0.00000000E+00
  0.00000000E+00  0.00000000E+00  0.00000000E+00
  0.00000000E+00  0.00000000E+00  0.00000000E+00
  0.00000000E+00  0.00000000E+00  0.00000000E+00
  0.00000000E+00  0.00000000E+00  0.00000000E+00
  0.00000000E+00  0.00000000E+00  0.00000000E+00
  0.00000000E+00  0.00000000E+00  0.00000000E+00
  0.00000000E+00  0.00000000E+00  0.00000000E+00
  0.00000000E+00  0.00000000E+00  0.00000000E+00
  0.00000000E+00  0.00000000E+00  0.00000000E+00
  0.00000000E+00  0.00000000E+00  0.00000000E+00
  0.00000000E+00  0.00000000E+00  0.00000000E+00
  0.00000000E+00  0.00000000E+00  0.00000000E+00
  0.00000000E+00  0.00000000E+00  0.00000000E+00
  0.00000000E+00  0.00000000E+00  0.00000000E+00
  0.00000000E+00  0.00000000E+00  0.00000000E+00
  0.00000000E+00  0.00000000E+00  0.00000000E+00
  0.00000000E+00  0.00000000E+00  0.00000000E+00
  0.00000000E+00  0.00000000E+00  0.00000000E+00
  0.00000000E+00  0.00000000E+00  0.00000000E+00
  0.00000000E+00  0.00000000E+00  0.00000000E+00
  0.00000000E+00  0.00000000E+00  0.00000000E+00
  0.00000000E+00  0.00000000E+00  0.00000000E+00
  0.00000000E+00  0.00000000E+00  0.00000000E+00
  0.00000000E+00  0.00000000E+00  0.00000000E+00
  0.00000000E+00  0.00000000E+00  0.00000000E+00
  0.00000000E+00  0.00000000E+00  0.00000000E+00
  0.00000000E+00  0.00000000E+00  0.00000000E+00
  0.00000000E+00  0.00000000E+00  0.00000000E+00
  0.00000000E+00  0.00000000E+00  0.00000000E+00
  0.00000000E+00  0.00000000E+00  0.00000000E+00
  0.00000000E+00  0.00000000E+00  0.00000000E+00
  0.00000000E+00  0.00000000E+00  0.00000000E+00
  0.00000000E+00  0.00000000E+00  0.00000000E+00
  0.00000000E+00  0.00000000E+00  0.00000000E+00
  0.00000000E+00  0.00000000E+00  0.00000000E+00
  0.00000000E+00  0.00000000E+00  0.00000000E+00
  0.00000000E+00  0.00000000E+00  0.00000000E+00
  0.00000000E+00  0.00000000E+00  0.00000000E+00
  0.00000000E+00  0.00000000E+00  0.00000000E+00
  0.00000000E+00  0.00000000E+00  0.00000000E+00
  0.00000000E+00  0.00000000E+00  0.00000000E+00
  0.00000000E+00  0.00000000E+00  0.00000000E+00
  0.00000000E+00  0.00000000E+00  0.00000000E+00
  0.00000000E+00  0.00000000E+00  0.00000000E+00
  0.00000000E+00  0.00000000E+00  0.00000000E+00
  0.00000000E+00  0.00000000E+00  0.00000000E+00
  0.00000000E+00  0.00000000E+00  0.00000000E+00
  0.00000000E+00  0.00000000E+00  0.00000000E+00
  0.00000000E+00  0.00000000E+00  0.00000000E+00
  0.00000000E+00  0.00000000E+00  0.00000000E+00
  0.00000000E+00  0.00000000E+00  0.00000000E+00
  0.00000000E+00  0.00000000E+00  0.00000000E+00
  0.00000000E+00  0.00000000E+00  0.00000000E+00
  0.00000000E+00  0.00000000E+00  0.00000000E+00
  0.00000000E+00  0.00000000E+00  0.00000000E+00
  0.00000000E+00  0.00000000E+00  0.00000000E+00
  0.00000000E+00  0.00000000E+00  0.00000000E+00
  0.00000000E+00  0.00000000E+00  0.00000000E+00
  0.00000000E+00  0.00000000E+00  0.00000000E+00
  0.00000000E+00  0.00000000E+00  0.00000000E+00
  0.00000000E+00  0.00000000E+00  0.00000000E+00
  0.00000000E+00  0.00000000E+00  0.00000000E+00
  0.00000000E+00  0.00000000E+00  0.00000000E+00
  0.00000000E+00  0.00000000E+00  0.00000000E+00
  0.00000000E+00  0.00000000E+00  0.00000000E+00
  0.00000000E+00  0.00000000E+00  0.00000000E+00
  0.00000000E+00  0.00000000E+00  0.00000000E+00
  0.00000000E+00  0.00000000E+00  0.00000000E+00
  0.00000000E+00  0.00000000E+00  0.00000000E+00
  0.00000000E+00  0.00000000E+00  0.00000000E+00
  0.00000000E+00  0.00000000E+00  0.00000000E+00
  0.00000000E+00  0.00000000E+00  0.00000000E+00
  0.00000000E+00  0.00000000E+00  0.00000000E+00
