Ca1 F2                                  
1.0
       10.8528347015         0.0000000000         0.0000000000
        0.0000000000        10.8528347015         0.0000000000
        0.0000000000         0.0000000000        10.8528347015
   Ca    F  Bi
   31   64  1
Direct
     0.000000000         0.000000000         0.000000000
     0.000000000         0.000000000         0.500000000
     0.000000000         0.500000000         0.000000000
     0.000000000         0.500000000         0.500000000
     0.500000000         0.000000000         0.000000000
     0.500000000         0.000000000         0.500000000
     0.500000000         0.500000000         0.000000000
     0.000000000         0.250000000         0.250000000
     0.000000000         0.250000000         0.750000000
     0.000000000         0.750000000         0.250000000
     0.000000000         0.750000000         0.750000000
     0.500000000         0.250000000         0.250000000
     0.500000000         0.250000000         0.750000000
     0.500000000         0.750000000         0.250000000
     0.500000000         0.750000000         0.750000000
     0.250000000         0.000000000         0.250000000
     0.250000000         0.000000000         0.750000000
     0.250000000         0.500000000         0.250000000
     0.250000000         0.500000000         0.750000000
     0.750000000         0.000000000         0.250000000
     0.750000000         0.000000000         0.750000000
     0.750000000         0.500000000         0.250000000
     0.750000000         0.500000000         0.750000000
     0.250000000         0.250000000         0.000000000
     0.250000000         0.250000000         0.500000000
     0.250000000         0.750000000         0.000000000
     0.250000000         0.750000000         0.500000000
     0.750000000         0.250000000         0.000000000
     0.750000000         0.250000000         0.500000000
     0.750000000         0.750000000         0.000000000
     0.750000000         0.750000000         0.500000000
     0.125000000         0.125000000         0.125000000
     0.125000000         0.125000000         0.625000000
     0.125000000         0.625000000         0.125000000
     0.125000000         0.625000000         0.625000000
     0.625000000         0.125000000         0.125000000
     0.625000000         0.125000000         0.625000000
     0.625000000         0.625000000         0.125000000
     0.625000000         0.625000000         0.625000000
     0.375000000         0.375000000         0.375000000
     0.375000000         0.375000000         0.875000000
     0.375000000         0.875000000         0.375000000
     0.375000000         0.875000000         0.875000000
     0.875000000         0.375000000         0.375000000
     0.875000000         0.375000000         0.875000000
     0.875000000         0.875000000         0.375000000
     0.875000000         0.875000000         0.875000000
     0.375000000         0.375000000         0.125000000
     0.375000000         0.375000000         0.625000000
     0.375000000         0.875000000         0.125000000
     0.375000000         0.875000000         0.625000000
     0.875000000         0.375000000         0.125000000
     0.875000000         0.375000000         0.625000000
     0.875000000         0.875000000         0.125000000
     0.875000000         0.875000000         0.625000000
     0.125000000         0.125000000         0.375000000
     0.125000000         0.125000000         0.875000000
     0.125000000         0.625000000         0.375000000
     0.125000000         0.625000000         0.875000000
     0.625000000         0.125000000         0.375000000
     0.625000000         0.125000000         0.875000000
     0.625000000         0.625000000         0.375000000
     0.625000000         0.625000000         0.875000000
     0.375000000         0.125000000         0.375000000
     0.375000000         0.125000000         0.875000000
     0.375000000         0.625000000         0.375000000
     0.375000000         0.625000000         0.875000000
     0.875000000         0.125000000         0.375000000
     0.875000000         0.125000000         0.875000000
     0.875000000         0.625000000         0.375000000
     0.875000000         0.625000000         0.875000000
     0.125000000         0.375000000         0.125000000
     0.125000000         0.375000000         0.625000000
     0.125000000         0.875000000         0.125000000
     0.125000000         0.875000000         0.625000000
     0.625000000         0.375000000         0.125000000
     0.625000000         0.375000000         0.625000000
     0.625000000         0.875000000         0.125000000
     0.625000000         0.875000000         0.625000000
     0.125000000         0.375000000         0.375000000
     0.125000000         0.375000000         0.875000000
     0.125000000         0.875000000         0.375000000
     0.125000000         0.875000000         0.875000000
     0.625000000         0.375000000         0.375000000
     0.625000000         0.375000000         0.875000000
     0.625000000         0.875000000         0.375000000
     0.625000000         0.875000000         0.875000000
     0.375000000         0.125000000         0.125000000
     0.375000000         0.125000000         0.625000000
     0.375000000         0.625000000         0.125000000
     0.375000000         0.625000000         0.625000000
     0.875000000         0.125000000         0.125000000
     0.875000000         0.125000000         0.625000000
     0.875000000         0.625000000         0.125000000
     0.875000000         0.625000000         0.625000000
     0.500000000         0.500000000         0.500000000
